(set-info :smt-lib-version 2.6)
(set-logic LRA)
(set-info :source |
   Monniaux, David; Quantifier Elimination by Lazy Model Enumeration, CAV 2010
|)
(set-info :category "random")
; ./Mjollnir_examples/B6/formula_039.m
(set-info :status unsat)
(assert
 (forall ((|v17:0| Real) )(forall ((|v16:1| Real) )(forall ((|v15:2| Real) )(forall ((|v14:3| Real) )(forall ((|v13:4| Real) )(forall ((|v12:5| Real) )(exists ((|v11:6| Real) )(exists ((|v10:7| Real) )(exists ((|v9:8| Real) )(exists ((|v8:9| Real) )(exists ((|v7:10| Real) )(exists ((|v6:11| Real) )(forall ((|v5:12| Real) )(forall ((|v4:13| Real) )(forall ((|v3:14| Real) )(forall ((|v2:15| Real) )(forall ((|v1:16| Real) )(forall ((|v0:17| Real) )(let ((?x82 20))
(let ((?x129 (- 4)))
(let ((?x130 (* ?x129 |v8:9|)))
(let ((?x220 (- 11)))
(let ((?x812 (* ?x220 |v6:11|)))
(let ((?x824 (+ (+ (+ (* 7 |v2:15|) (* 9 |v3:14|)) ?x812) ?x130)))
(let ((?x830 (+ (+ (+ ?x824 (* (- 7) |v13:4|)) (* 12 |v14:3|)) (* 5 |v1:16|))))
(let ((?x78 8))
(let ((?x687 (* ?x78 |v14:3|)))
(let ((?x178 6))
(let ((?x179 (* ?x178 |v14:3|)))
(let ((?x182 19))
(let ((?x183 (* ?x182 |v3:14|)))
(let ((?x809 (+ (+ (+ (* (- 18) |v13:4|) (* 0 |v12:5|)) ?x183) ?x179)))
(let ((?x14 9))
(let ((?x88 (- 8)))
(let ((?x345 (* ?x88 |v2:15|)))
(let ((?x797 (+ (+ (* (- 15) |v5:12|) (* 2 |v9:8|)) (* 17 |v4:13|))))
(let ((?x804 (+ (+ (+ (+ ?x797 (* ?x82 |v5:12|)) (* 7 |v12:5|)) ?x345) (* (- 20) |v4:13|))))
(let (($x816 (or (<= ?x804 ?x14) (<= (+ (+ (+ ?x809 (* 16 |v13:4|)) ?x812) ?x687) ?x82))))
(let ((?x783 (+ (+ (* (- 1) |v14:3|) (* 10 |v5:12|)) (* 17 |v12:5|))))
(let ((?x788 (+ (+ (+ ?x783 |v2:15|) (* (- 3) |v10:7|)) (* (- 15) |v17:0|))))
(let ((?x140 (- 13)))
(let ((?x458 (* ?x140 |v13:4|)))
(let ((?x60 (- 6)))
(let ((?x415 (* ?x60 |v5:12|)))
(let ((?x774 (+ (+ (+ (* 10 |v9:8|) (* ?x178 |v16:1|)) ?x415) (* (- 9) |v2:15|))))
(let (($x792 (or (<= (+ (+ (+ ?x774 ?x458) (* ?x178 |v3:14|)) (* ?x129 |v7:10|)) ?x220) (<= (+ ?x788 (* (- 20) |v2:15|)) ?x88))))
(let ((?x758 (+ (+ (* (- 1) |v0:17|) (* 11 |v16:1|)) (* 18 |v6:11|))))
(let ((?x764 (+ (+ (+ ?x758 (* (- 15) |v9:8|)) (* (- 20) |v5:12|)) (* ?x178 |v6:11|))))
(let ((?x108 10))
(let ((?x745 (+ (+ (* 11 |v5:12|) (* 11 |v12:5|)) (* 15 |v0:17|))))
(let ((?x751 (+ (+ (+ ?x745 (* (- 5) |v1:16|)) (* (- 18) |v17:0|)) (* (- 5) |v5:12|))))
(let (($x768 (and (<= (+ ?x751 (* ?x178 |v13:4|)) ?x108) (<= (+ ?x764 (* ?x129 |v16:1|)) ?x14))))
(let ((?x250 11))
(let ((?x34 15))
(let ((?x53 (* ?x34 |v12:5|)))
(let ((?x19 (- 2)))
(let ((?x38 (* ?x19 |v1:16|)))
(let ((?x296 (* ?x250 |v4:13|)))
(let ((?x40 (- 1)))
(let ((?x733 (* ?x40 |v14:3|)))
(let ((?x735 (+ (+ (+ (* 16 |v0:17|) (* 0 |v16:1|)) ?x733) ?x296)))
(let ((?x121 (- 14)))
(let ((?x45 (- 17)))
(let ((?x374 (* ?x45 |v15:2|)))
(let ((?x152 (* ?x82 |v16:1|)))
(let ((?x724 (+ (+ (+ (* ?x220 |v16:1|) (* ?x250 |v2:15|)) (* 12 |v0:17|)) ?x152)))
(let (($x730 (<= (+ (+ (+ ?x724 (* 7 |v9:8|)) ?x374) (* ?x45 |v4:13|)) ?x121)))
(let (($x769 (or (and $x730 (<= (+ (+ (+ ?x735 ?x38) ?x53) (* ?x78 |v2:15|)) ?x250)) $x768)))
(let ((?x29 2))
(let ((?x419 (* ?x29 |v14:3|)))
(let ((?x630 (* ?x19 |v17:0|)))
(let ((?x711 (+ (+ (* ?x34 |v10:7|) (* 14 |v6:11|)) (* (- 19) |v5:12|))))
(let ((?x717 (+ (+ (+ (+ ?x711 (* ?x14 |v16:1|)) ?x630) ?x419) (* 17 |v10:7|))))
(let ((?x695 (+ (+ (+ (* ?x19 |v7:10|) |v14:3|) (* ?x178 |v0:17|)) (* 13 |v2:15|))))
(let ((?x701 (+ (+ (+ ?x695 (* ?x250 |v6:11|)) (* (- 12) |v12:5|)) (* ?x108 |v2:15|))))
(let ((?x287 (* ?x14 |v14:3|)))
(let ((?x683 (+ (+ (+ (* 17 |v3:14|) (* ?x29 |v11:6|)) (* ?x108 |v0:17|)) (* (- 15) |v1:16|))))
(let (($x703 (or (<= (+ (+ (+ ?x683 (* ?x121 |v15:2|)) ?x287) ?x687) ?x82) (<= ?x701 ?x178))))
(let ((?x125 3))
(let ((?x417 (* ?x45 |v3:14|)))
(let ((?x670 (+ (+ (+ (* ?x220 |v0:17|) (* 17 |v6:11|)) (* ?x29 |v8:9|)) (* ?x78 |v5:12|))))
(let (($x676 (<= (+ (+ (+ ?x670 ?x417) (* 16 |v6:11|)) (* ?x178 |v5:12|)) ?x125)))
(let ((?x217 13))
(let ((?x218 (* ?x217 |v3:14|)))
(let ((?x656 (+ (+ (* 16 |v12:5|) (* 0 |v14:3|)) (* 7 |v0:17|))))
(let ((?x663 (+ (+ (+ (+ ?x656 ?x218) (* 7 |v11:6|)) (* ?x178 |v2:15|)) (* (- 19) |v8:9|))))
(let ((?x24 (- 12)))
(let ((?x148 (* ?x24 |v13:4|)))
(let ((?x645 (+ (+ (+ (+ (* ?x34 |v14:3|) (* ?x29 |v13:4|)) (* ?x125 |v1:16|)) ?x148) (* ?x45 |v10:7|))))
(let ((?x527 (* ?x121 |v2:15|)))
(let ((?x61 (* ?x60 |v8:9|)))
(let ((?x194 0))
(let ((?x634 (* ?x194 |v14:3|)))
(let ((?x633 (+ (+ (+ (* 4 |v15:2|) (* (- 16) |v6:11|)) ?x630) (* ?x182 |v2:15|))))
(let (($x651 (and (<= (+ (+ (+ ?x633 ?x634) ?x61) ?x527) ?x121) (<= (+ (+ ?x645 (* 4 |v1:16|)) (* ?x45 |v9:8|)) ?x140))))
(let ((?x112 5))
(let ((?x456 (* ?x220 |v7:10|)))
(let ((?x71 17))
(let ((?x337 (* ?x71 |v13:4|)))
(let ((?x607 (* ?x88 |v17:0|)))
(let ((?x621 (+ (+ (+ (* ?x60 |v13:4|) (* (- 18) |v6:11|)) ?x419) (* ?x182 |v10:7|))))
(let ((?x203 (- 5)))
(let ((?x447 (* ?x34 |v13:4|)))
(let ((?x273 (* ?x220 |v11:6|)))
(let ((?x613 (+ (+ (+ (+ (* (- 19) |v6:11|) ?x607) ?x61) (* ?x112 |v13:4|)) (* 16 |v7:10|))))
(let (($x626 (and (<= (+ (+ ?x613 ?x273) ?x447) ?x203) (<= (+ (+ (+ ?x621 ?x607) ?x337) ?x456) ?x112))))
(let ((?x595 (+ (+ (+ (* ?x108 |v13:4|) (* ?x121 |v7:10|)) (* (- 9) |v11:6|)) (* ?x217 |v16:1|))))
(let ((?x601 (+ (+ (+ ?x595 (* ?x182 |v9:8|)) (* 14 |v3:14|)) (* ?x34 |v11:6|))))
(let ((?x394 (* ?x29 |v1:16|)))
(let ((?x228 (* ?x60 |v17:0|)))
(let ((?x230 (* ?x112 |v7:10|)))
(let ((?x584 (+ (+ (+ (* ?x121 |v3:14|) (* 7 |v5:12|)) (* ?x29 |v5:12|)) (* 18 |v4:13|))))
(let ((?x351 (* ?x178 |v16:1|)))
(let ((?x572 (+ (+ (+ (+ (* ?x88 |v8:9|) (* ?x121 |v9:8|)) (* ?x194 |v6:11|)) ?x351) ?x296)))
(let ((?x317 7))
(let ((?x561 (* ?x317 |v2:15|)))
(let ((?x275 (* ?x24 |v11:6|)))
(let ((?x559 (+ (+ (+ (* ?x178 |v15:2|) (* ?x317 |v13:4|)) (* ?x250 |v15:2|)) (* (- 16) |v3:14|))))
(let (($x578 (and (<= (+ (+ (+ ?x559 ?x275) ?x561) (* ?x178 |v8:9|)) ?x217) (<= (+ (+ ?x572 (* ?x82 |v14:3|)) (* ?x14 |v6:11|)) ?x182))))
(let (($x604 (and $x578 (or (<= (+ (+ (+ ?x584 ?x230) ?x228) ?x394) ?x203) (<= ?x601 ?x82)))))
(let ((?x49 (- 3)))
(let ((?x315 (* ?x49 |v3:14|)))
(let ((?x449 (* ?x82 |v9:8|)))
(let ((?x291 (* ?x24 |v7:10|)))
(let ((?x548 (+ (+ (+ (* (- 15) |v11:6|) (* 16 |v0:17|)) |v11:6|) ?x291)))
(let (($x706 (and (or (<= (+ (+ (+ ?x548 ?x53) ?x449) ?x315) ?x14) $x604) (and (or $x626 $x651) (and (or (<= ?x663 ?x40) $x676) $x703)))))
(let (($x832 (and (and $x706 (or (<= ?x717 1) (and $x769 (and $x792 $x816)))) (<= ?x830 ?x82))))
(let ((?x476 (* ?x108 |v4:13|)))
(let ((?x530 (+ (+ (+ (* 18 |v0:17|) (* ?x178 |v17:0|)) ?x527) (* ?x71 |v8:9|))))
(let (($x537 (<= (+ (+ (+ ?x530 (* ?x82 |v3:14|)) ?x476) (* ?x34 |v17:0|)) 1)))
(let ((?x103 (* ?x88 |v9:8|)))
(let ((?x150 (* ?x112 |v11:6|)))
(let ((?x515 (+ (+ (* (- 15) |v14:3|) (* ?x40 |v9:8|)) (* (- 15) |v16:1|))))
(let ((?x521 (+ (+ (+ (+ ?x515 (* 4 |v6:11|)) ?x150) (* ?x82 |v2:15|)) ?x103)))
(let ((?x213 (- 10)))
(let ((?x311 (* ?x71 |v14:3|)))
(let ((?x500 (+ (+ (+ (* 12 |v7:10|) (* ?x125 |v3:14|)) (* ?x140 |v2:15|)) ?x311)))
(let ((?x506 (+ (+ (+ ?x500 (* (- 20) |v3:14|)) (* ?x250 |v0:17|)) (* ?x194 |v0:17|))))
(let ((?x75 (- 9)))
(let ((?x488 (+ (+ (+ (* ?x220 |v5:12|) ?x374) (* (- 19) |v11:6|)) (* 4 |v2:15|))))
(let (($x495 (<= (+ (+ (+ ?x488 (* ?x34 |v2:15|)) (* ?x317 |v14:3|)) (* ?x75 |v3:14|)) ?x75)))
(let ((?x473 (+ (+ (+ (* ?x78 |v15:2|) (* ?x217 |v10:7|)) (* ?x108 |v12:5|)) (* ?x129 |v5:12|))))
(let ((?x122 (* ?x121 |v4:13|)))
(let ((?x463 (+ (+ (+ (+ (* ?x29 |v3:14|) ?x456) ?x458) (* ?x250 |v14:3|)) (* ?x317 |v17:0|))))
(let (($x481 (or (<= (+ (+ ?x463 ?x122) (* ?x194 |v8:9|)) ?x317) (<= (+ (+ (+ ?x473 (* ?x40 |v13:4|)) ?x476) (* ?x75 |v14:3|)) ?x217))))
(let ((?x448 (+ (+ (+ (+ (* ?x71 |v3:14|) ?x311) (* ?x82 |v1:16|)) (* ?x14 |v9:8|)) ?x447)))
(let ((?x434 (* ?x108 |v5:12|)))
(let ((?x437 (+ (+ (+ (+ (* ?x250 |v16:1|) (* ?x24 |v10:7|)) (* ?x29 |v5:12|)) ?x434) (* ?x108 |v10:7|))))
(let (($x454 (and (<= (+ (+ ?x437 |v0:17|) (* (- 7) |v7:10|)) ?x45) (<= (+ (+ ?x448 ?x449) (* (- 16) |v4:13|)) ?x213))))
(let (($x540 (and (or $x454 $x481) (or (or $x495 (<= ?x506 ?x213)) (or (<= ?x521 ?x317) $x537)))))
(let ((?x422 (+ (+ (+ (+ (+ (* ?x317 |v8:9|) (* ?x29 |v17:0|)) ?x415) ?x417) ?x419) (* ?x75 |v17:0|))))
(let ((?x235 (- 16)))
(let ((?x406 (+ (+ (+ (* 18 |v1:16|) (* ?x49 |v8:9|)) (* ?x60 |v10:7|)) (* ?x121 |v0:17|))))
(let (($x426 (and (<= (+ (+ (+ ?x406 |v0:17|) (* ?x71 |v0:17|)) (* ?x108 |v11:6|)) ?x235) (<= (+ ?x422 (* 12 |v11:6|)) ?x75))))
(let ((?x109 (* ?x108 |v3:14|)))
(let ((?x393 (+ (+ (+ (* ?x49 |v15:2|) (* (- 19) |v1:16|)) (* ?x19 |v10:7|)) (* ?x203 |v6:11|))))
(let ((?x134 18))
(let ((?x305 (* ?x82 |v8:9|)))
(let ((?x380 (+ (+ (+ ?x374 (* ?x121 |v14:3|)) (* 16 |v17:0|)) (* ?x82 |v17:0|))))
(let (($x400 (and (<= (+ (+ (+ ?x380 (* ?x125 |v5:12|)) ?x305) (* ?x40 |v4:13|)) ?x134) (<= (+ (+ (+ ?x393 ?x394) ?x109) (* ?x194 |v7:10|)) ?x125))))
(let ((?x10 14))
(let ((?x65 (- 20)))
(let ((?x101 (* ?x65 |v17:0|)))
(let ((?x199 (* ?x10 |v12:5|)))
(let ((?x367 (+ (+ (+ (* ?x220 |v15:2|) (* ?x71 |v9:8|)) (* 16 |v2:15|)) (* ?x88 |v11:6|))))
(let ((?x56 (* ?x24 |v0:17|)))
(let ((?x92 4))
(let ((?x341 (* ?x92 |v3:14|)))
(let ((?x357 (+ (+ (+ (+ (* ?x24 |v2:15|) ?x351) (* ?x194 |v2:15|)) (* ?x75 |v5:12|)) ?x341)))
(let (($x372 (or (<= (+ (+ ?x357 ?x56) (* ?x10 |v0:17|)) ?x10) (<= (+ (+ (+ ?x367 ?x199) ?x101) |v12:5|) ?x10))))
(let ((?x344 (+ (+ (+ (+ (* 12 |v10:7|) ?x337) (* ?x140 |v15:2|)) ?x341) (* ?x220 |v12:5|))))
(let (($x428 (and (and (<= (+ (+ ?x344 ?x345) (* ?x49 |v1:16|)) ?x71) $x372) (and $x400 $x426))))
(let ((?x326 (+ (+ (+ (+ ?x315 (* ?x317 |v8:9|)) (* ?x217 |v10:7|)) (* ?x65 |v15:2|)) (* ?x182 |v13:4|))))
(let (($x331 (<= (+ (+ ?x326 (* (- 7) |v14:3|)) (* 12 |v17:0|)) ?x10)))
(let ((?x160 16))
(let ((?x161 (* ?x160 |v2:15|)))
(let ((?x308 (+ (+ (+ (* ?x88 |v12:5|) (* (- 18) |v12:5|)) ?x305) (* ?x220 |v3:14|))))
(let ((?x295 (+ (+ (+ (+ (* (- 18) |v2:15|) ?x287) (* ?x129 |v4:13|)) ?x291) (* ?x112 |v5:12|))))
(let ((?x280 (+ (+ (+ (+ (* ?x182 |v15:2|) ?x273) ?x275) (* ?x217 |v9:8|)) (* ?x125 |v9:8|))))
(let (($x301 (and (<= (+ (+ ?x280 (* ?x140 |v4:13|)) (* ?x121 |v13:4|)) ?x10) (<= (+ (+ ?x295 ?x296) (* ?x178 |v4:13|)) ?x182))))
(let (($x333 (and $x301 (and (<= (+ (+ (+ ?x308 (* ?x45 |v1:16|)) ?x311) ?x161) ?x10) $x331))))
(let ((?x263 (+ (+ (+ (* ?x178 |v9:8|) (* ?x40 |v16:1|)) (* ?x24 |v15:2|)) (* ?x10 |v1:16|))))
(let (($x270 (<= (+ (+ (+ ?x263 (* ?x14 |v13:4|)) (* ?x10 |v13:4|)) (* ?x125 |v8:9|)) ?x182)))
(let ((?x251 (* ?x250 |v12:5|)))
(let ((?x247 (* ?x34 |v14:3|)))
(let ((?x246 (+ (+ (+ (* ?x10 |v14:3|) (* ?x24 |v6:11|)) (* ?x134 |v1:16|)) (* ?x82 |v6:11|))))
(let ((?x233 (+ (+ (+ (+ (* ?x178 |v7:10|) (* (- 7) |v15:2|)) ?x228) ?x230) (* ?x112 |v12:5|))))
(let (($x256 (and (<= (+ (+ ?x233 (* ?x235 |v17:0|)) |v16:1|) ?x129) (<= (+ (+ (+ ?x246 ?x247) ?x251) (* ?x235 |v9:8|)) ?x78))))
(let ((?x209 (- 18)))
(let ((?x210 (* ?x209 |v6:11|)))
(let ((?x211 (+ (+ (+ (+ ?x199 (* ?x82 |v1:16|)) (* ?x203 |v15:2|)) (* ?x108 |v1:16|)) ?x210)))
(let ((?x195 (* ?x194 |v12:5|)))
(let ((?x188 (+ (+ (+ (+ (* ?x129 |v17:0|) ?x179) ?x183) (* ?x29 |v8:9|)) (* 12 |v3:14|))))
(let (($x222 (and (<= (+ (+ ?x188 (* (- 19) |v0:17|)) ?x195) ?x82) (<= (+ (+ ?x211 (* ?x213 |v16:1|)) ?x218) ?x220))))
(let ((?x169 (+ (+ (+ (+ ?x161 (* ?x45 |v13:4|)) (* ?x108 |v7:10|)) |v2:15|) (* (- 7) |v0:17|))))
(let ((?x155 (+ (+ (+ (+ (+ (* 12 |v9:8|) ?x61) ?x148) ?x150) ?x152) (* ?x108 |v15:2|))))
(let (($x175 (and (<= (+ ?x155 (* ?x134 |v17:0|)) ?x19) (<= (+ (+ ?x169 (* ?x160 |v15:2|)) (* ?x71 |v11:6|)) ?x88))))
(let ((?x136 (+ (+ (+ (+ (* ?x75 |v6:11|) ?x122) (* ?x125 |v3:14|)) ?x130) (* ?x134 |v2:15|))))
(let ((?x114 (+ (+ (+ (+ (+ (* ?x78 |v3:14|) ?x101) ?x103) (* ?x29 |v0:17|)) ?x109) (* ?x112 |v4:13|))))
(let (($x144 (or (<= (+ ?x114 (* ?x92 |v8:9|)) ?x71) (<= (+ (+ ?x136 (* ?x19 |v4:13|)) (* ?x140 |v3:14|)) ?x92))))
(let ((?x97 12))
(let ((?x86 (+ (+ (+ (* ?x75 |v12:5|) (* ?x78 |v1:16|)) (* ?x82 |v4:13|)) (* ?x29 |v7:10|))))
(let (($x98 (<= (+ (+ (+ ?x86 (* ?x88 |v1:16|)) (* ?x92 |v16:1|)) (* ?x75 |v15:2|)) ?x97)))
(let ((?x67 (+ (+ (+ (+ (+ (* ?x45 |v13:4|) (* ?x49 |v9:8|)) ?x53) ?x56) ?x61) (* ?x65 |v11:6|))))
(let (($x224 (or (or (and (<= (+ ?x67 (* ?x49 |v7:10|)) ?x71) $x98) $x144) (or $x175 $x222))))
(let ((?x26 (+ (+ (+ (* ?x10 |v17:0|) (* ?x14 |v4:13|)) (* ?x19 |v14:3|)) (* ?x24 |v3:14|))))
(let (($x543 (or (<= (+ (+ (+ ?x26 (* ?x29 |v16:1|)) (* ?x34 |v15:2|)) ?x38) ?x40) (and (and $x224 (or (or $x256 $x270) $x333)) (and $x428 $x540)))))
(and $x543 $x832)))))))))))))))))))))))))))))))))))))))))))))))))))))))))))))))))))))))))))))))))))))))))))))))))))))))))))))))))))))))))))))))))))))))))))))))))))))))))))))))))))))))))))))))))))))))))))))))
)
)
)
)
)
)
)
)
)
)
)
)
)
)
)
)
)
)
(check-sat)
(exit)

